%nprocshared=8
%mem=10GB
# opt freq b3lyp/6-31g(d) geom=connectivity scf=xqc

Coronene_optimized

0 1
 C                 -0.50830000   -1.31980000    0.00000000
 C                  0.88890000   -1.10010000   -0.00010000
 C                 -1.39720000   -0.21970000    0.00000000
 C                  1.39720000    0.21980000   -0.00010000
 C                 -0.88890000    1.10010000    0.00000000
 C                  0.50830000    1.31980000    0.00000000
 C                 -1.01600000   -2.63820000    0.00000000
 C                  1.77690000   -2.19900000    0.00000000
 C                 -2.79300000   -0.43930000   -0.00010000
 C                  2.79290000    0.43920000   -0.00010000
 C                 -1.77690000    2.19900000    0.00010000
 C                  1.01610000    2.63830000    0.00000000
 C                 -2.40280000   -2.83860000    0.00000000
 C                  1.25710000   -3.50010000    0.00020000
 C                 -0.12180000   -3.71690000    0.00020000
 C                  3.28000000    1.75300000   -0.00010000
 C                 -1.25690000    3.50010000    0.00010000
 C                 -3.65990000    0.66150000   -0.00010000
 C                  2.40280000    2.83860000    0.00010000
 C                 -3.15820000    1.96410000    0.00000000
 C                 -3.28000000   -1.75300000   -0.00020000
 C                  0.12190000    3.71700000    0.00010000
 C                  3.15810000   -1.96400000    0.00000000
 C                  3.65980000   -0.66150000   -0.00010000
 H                 -2.81650000   -3.84500000    0.00000000
 H                  1.92170000   -4.36160000    0.00040000
 H                 -0.49000000   -4.74090000    0.00040000
 H                  2.81660000    3.84500000    0.00020000
 H                 -1.92150000    4.36160000    0.00020000
 H                 -4.35080000   -1.94620000   -0.00020000
 H                 -3.86090000    2.79490000    0.00010000
 H                  4.35080000    1.94610000   -0.00010000
 H                  3.86090000   -2.79480000    0.00000000
 H                 -4.73830000    0.51670000   -0.00010000
 H                  0.49000000    4.74100000    0.00020000
 H                  4.73820000   -0.51670000   -0.00010000

 1 2 1.0 3 1.0 7 2.0
 2 4 1.0 8 2.0
 3 5 1.0 9 2.0
 4 6 1.0 10 2.0
 5 6 1.0 11 2.0
 6 12 2.0
 7 13 1.0 15 1.0
 8 14 1.0 23 1.0
 9 18 1.0 21 1.0
 10 16 1.0 24 1.0
 11 17 1.0 20 1.0
 12 19 1.0 22 1.0
 13 21 2.0 25 1.0
 14 15 2.0 26 1.0
 15 27 1.0
 16 19 2.0 32 1.0
 17 22 2.0 29 1.0
 18 20 2.0 34 1.0
 19 28 1.0
 20 31 1.0
 21 30 1.0
 22 35 1.0
 23 24 2.0 33 1.0
 24 36 1.0
 25
 26
 27
 28
 29
 30
 31
 32
 33
 34
 35
 36

