%nprocshared=4
%mem=10GB
# opt freq b3lyp/6-31g geom=connectivity scf=xqc

C2H6_M

0 1
 C                 -0.30210000    1.11800000   -2.05310000
 H                 -0.30210000    2.13770000   -2.45240000
 H                  0.58100000    0.60810000   -2.45240000
 H                 -1.18510000    0.60810000   -2.45240000
 C                 -0.30210000    1.11800000   -0.52320000
 H                 -1.18510000    1.62780000   -0.12390000
 H                 -0.30210000    0.09830000   -0.12390000
 H                  0.58100000    1.62780000   -0.12390000

 1 2 1.0 3 1.0 4 1.0 5 1.0
 2
 3
 4
 5 6 1.0 7 1.0 8 1.0
 6
 7
 8

