%nprocshared=4
%mem=10GB
# opt freq b3lyp/6-31g geom=connectivity scf=xqc

CH4_M

0 1
 C                 -0.33960000    1.10210000   -1.45650000
 H                  0.19080000    0.15080000   -1.38030000
 H                  0.37690000    1.92400000   -1.39900000
 H                 -1.05620000    1.18600000   -0.63690000
 H                 -0.87000000    1.14780000   -2.40980000

 1 2 1.0 3 1.0 4 1.0 5 1.0
 2
 3
 4
 5

