%nprocshared=4
%mem=10GB
# opt freq b3lyp/6-31g geom=connectivity scf=xqc

CO2_M

0 1
 C                 -0.44830000    0.63140000   -1.96650000
 O                  0.10360000    0.50460000   -0.94360000
 O                 -1.00010000    0.75830000   -2.98940000

 1 2 2.0 3 2.0
 2
 3

