%mem=10GB
%nprocshared=4
# opt freq b3lyp/6-31g geom=connectivity scf=xqc

H20_M

0 1
 O                 -2.93960000    0.00000000   -1.52010000
 H                 -2.93960000    0.75930000   -0.92400000
 H                 -2.93960000   -0.75930000   -0.92400000

 1 2 1.0 3 1.0
 2
 3

