%chk=C-d.chk
%nprocshared=8
%mem=10GB
# b3lyp/6-31g(d) pop=(full,nbo) geom=connectivity scf=xqc gfinput

Coronene_optimized

0 1
 C                 -1.42730000    0.02805900    0.00000100
 C                 -0.68933900    1.25000100   -0.00000800
 C                 -0.73792800   -1.22194700    0.00000700
 C                  0.73792700    1.22194600   -0.00000800
 C                  0.68933800   -1.25000100    0.00000700
 C                  1.42730000   -0.02805900    0.00000200
 C                 -2.84917400    0.05600000    0.00000000
 C                 -1.37609500    2.49530200   -0.00001400
 C                 -1.47310500   -2.43927800    0.00001200
 C                  1.47310600    2.43927800   -0.00001300
 C                  1.37609600   -2.49530200    0.00001400
 C                  2.84917200   -0.05600100    0.00000200
 C                 -3.55839600   -1.17859500    0.00000600
 C                 -2.79994200    2.49213500   -0.00001400
 C                 -3.50931900    1.31752200   -0.00000600
 C                  2.89573000    2.38017200   -0.00001100
 C                  2.79994400   -2.49213600    0.00001300
 C                 -0.75841000   -3.67074000    0.00001700
 C                  3.55839600    1.17859500   -0.00000400
 C                  0.61353900   -3.69771300    0.00001800
 C                 -2.89573100   -2.38017200    0.00001200
 C                  3.50931800   -1.31752200    0.00000800
 C                 -0.61353800    3.69771500   -0.00002000
 C                  0.75841000    3.67074100   -0.00001900
 H                 -4.64559200   -1.15450000    0.00000500
 H                 -3.32288500    3.44561600   -0.00002000
 H                 -4.59661800    1.33618700   -0.00000700
 H                  4.64559100    1.15449900   -0.00000400
 H                  3.32288700   -3.44561600    0.00001700
 H                 -3.45570400   -3.31238200    0.00002000
 H                  1.14099200   -4.64869100    0.00002400
 H                  3.45570500    3.31238100   -0.00001500
 H                 -1.14099300    4.64869100   -0.00002700
 H                 -1.32285000   -4.60024900    0.00002300
 H                  4.59661800   -1.33618500    0.00000700
 H                  1.32285100    4.60025000   -0.00002100

 1 2 1.5 3 1.5 7 1.5
 2 4 1.5 8 1.5
 3 5 1.5 9 1.5
 4 6 1.5 10 1.5
 5 6 1.5 11 1.5
 6 12 1.5
 7 13 1.5 15 1.5
 8 14 1.5 23 1.5
 9 18 1.5 21 1.5
 10 16 1.5 24 1.5
 11 17 1.5 20 1.5
 12 19 1.5 22 1.5
 13 21 2.0 25 1.0
 14 15 2.0 26 1.0
 15 27 1.0
 16 19 2.0 32 1.0
 17 22 2.0 29 1.0
 18 20 2.0 34 1.0
 19 28 1.0
 20 31 1.0
 21 30 1.0
 22 35 1.0
 23 24 2.0 33 1.0
 24 36 1.0
 25
 26
 27
 28
 29
 30
 31
 32
 33
 34
 35
 36

