%nprocshared=8
%mem=10GB
# b3lyp/6-31g pop=(full,nbo) geom=connectivity scf=xqc gfinput

C2H6_M

0 1
 C                 -0.76736700   -0.00000500   -0.00000300
 H                 -1.16662500   -1.02140500   -0.00035100
 H                 -1.16654300    0.51043100    0.88474700
 H                 -1.16655700    0.51106300   -0.88437900
 C                  0.76736800    0.00000100   -0.00000300
 H                  1.16655500   -0.51044100   -0.88474000
 H                  1.16662200    1.02140900    0.00035700
 H                  1.16654100   -0.51103500    0.88440000

 1 2 1.0 3 1.0 4 1.0 5 1.0
 2
 3
 4
 5 6 1.0 7 1.0 8 1.0
 6
 7
 8

