%nprocshared=8
%mem=10GB
# b3lyp/6-31g pop=(full,nbo) geom=connectivity scf=xqc gfinput

CH4_M

0 1
 C                 -0.00000400   -0.00000200   -0.00000100
 H                 -0.82841900   -0.67393500   -0.23364800
 H                  0.70972300    0.00697100   -0.83144500
 H                  0.50457000   -0.34353900    0.90688300
 H                 -0.38584900    1.01051900    0.15821800

 1 2 1.0 3 1.0 4 1.0 5 1.0
 2
 3
 4
 5

