%chk=CaC1-EC.chk
%nprocshared=16
%mem=20GB
# b3lyp/6-31g(d) pop=full geom=connectivity counterpoise=2 gfinput
iop(3/33=1,3/36=-1) scf=xqc

CaC-cpeN

0 1 0 1 0 1
 C(Fragment=1)      0.71488400    1.38636200   -0.06019300
 C(Fragment=1)     -0.68285400    1.24902900   -0.13427700
 C(Fragment=1)      1.58440600    0.22459600   -0.00280000
 C(Fragment=1)     -1.33076900   -0.07964500    0.11241200
 C(Fragment=1)      1.06810200   -1.08679200   -0.01341600
 C(Fragment=1)     -0.39339400   -1.32852500    0.18915200
 C(Fragment=1)      1.28777000    2.69405000   -0.12867600
 C(Fragment=1)     -1.51671500    2.36178300   -0.33729000
 C(Fragment=1)      2.99967500    0.41624100   -0.02889100
 C(Fragment=1)     -2.67606500   -0.27154300   -0.53039900
 C(Fragment=1)      1.91656200   -2.20155300   -0.14504900
 C(Fragment=1)     -0.91102600   -2.60210800   -0.40983100
 C(Fragment=1)      2.70597600    2.83584600   -0.08475600
 C(Fragment=1)     -0.93249700    3.65201000   -0.38846600
 C(Fragment=1)      0.42946600    3.81225700   -0.26777500
 C(Fragment=1)     -3.09449000   -1.54045200   -0.85082700
 C(Fragment=1)      1.34805900   -3.51615500   -0.33101800
 C(Fragment=1)      3.84295100   -0.72166000   -0.07561800
 C(Fragment=1)     -2.22832700   -2.67093600   -0.79614700
 C(Fragment=1)      3.31908200   -1.99130700   -0.15499900
 C(Fragment=1)      3.52663300    1.74194100   -0.03829000
 C(Fragment=1)      0.00800000   -3.69486700   -0.50929000
 C(Fragment=1)     -2.93061100    2.15318000   -0.55698300
 C(Fragment=1)     -3.46805400    0.90750900   -0.70254300
 H(Fragment=1)      3.12787500    3.83725300   -0.11573200
 H(Fragment=1)     -1.57568500    4.51650300   -0.53234400
 H(Fragment=1)      0.86832100    4.80615400   -0.30450300
 H(Fragment=1)     -2.61658100   -3.62732900   -1.14070200
 H(Fragment=1)      2.02838100   -4.35923400   -0.41734300
 H(Fragment=1)      4.60651600    1.86811500   -0.03259800
 H(Fragment=1)      3.97893000   -2.85169600   -0.23402400
 H(Fragment=1)     -4.10647300   -1.68067400   -1.22268800
 H(Fragment=1)     -3.55605800    3.03102400   -0.69838400
 H(Fragment=1)      4.92005100   -0.57337400   -0.08021900
 H(Fragment=1)     -0.38593300   -4.67587200   -0.76460000
 H(Fragment=1)     -4.50931000    0.79138000   -0.99308600
 C(Fragment=2)     -1.46332800   -0.31816600    1.66321200
 O(Fragment=2)     -0.64920500   -1.39989200    1.68942800
 O(Fragment=2)     -2.04087600    0.20628900    2.56466700

 1 2 1.5 3 1.0 7 1.5
 2 4 1.0 8 1.5
 3 5 1.5 9 1.5
 4 6 1.0 10 1.0 37 1.0
 5 6 1.0 11 1.5
 6 12 1.0
 7 13 1.5 15 1.5
 8 14 1.5 23 1.5
 9 18 1.5 21 1.5
 10 16 2.0 24 1.5
 11 17 1.5 20 1.5
 12 19 2.0 22 1.5
 13 21 2.0 25 1.0
 14 15 2.0 26 1.0
 15 27 1.0
 16 19 1.5 32 1.0
 17 22 2.0 29 1.0
 18 20 2.0 34 1.0
 19 28 1.0
 20 31 1.0
 21 30 1.0
 22 35 1.0
 23 24 2.0 33 1.0
 24 36 1.0
 25
 26
 27
 28
 29
 30
 31
 32
 33
 34
 35
 36
 37 38 1.0 39 2.0
 38
 39

