%nprocshared=16
%mem=20GB
# b3lyp/6-31g(d) pop=full geom=connectivity counterpoise=2 gfinput
iop(3/33=1,3/36=-1) scf=xqc

CaC3-eN

0 1 0 1 0 1
 C(Fragment=1)     -0.72775200    0.60754600   -0.29773300
 C(Fragment=1)      0.42892100    1.43103400   -0.16138100
 C(Fragment=1)     -0.58203500   -0.84682900   -0.26020500
 C(Fragment=1)      1.72268400    0.84446500    0.01395400
 C(Fragment=1)      0.71694000   -1.41580100   -0.10652300
 C(Fragment=1)      1.86666900   -0.57520100    0.03938200
 C(Fragment=1)     -1.97896700    1.21544900   -0.48348300
 C(Fragment=1)      0.30373900    2.85186900   -0.19969700
 C(Fragment=1)     -1.68643400   -1.70230700   -0.40430100
 C(Fragment=1)      2.86723500    1.67282500    0.15611500
 C(Fragment=1)      0.87916000   -2.83408400   -0.09517000
 C(Fragment=1)      3.15358600   -1.15131400    0.20486300
 C(Fragment=1)     -3.22462400    0.38286600   -0.59275800
 C(Fragment=1)     -0.97150900    3.41960900   -0.38448900
 C(Fragment=1)     -2.08738100    2.61407000   -0.52672600
 C(Fragment=1)      4.13914300    1.06866200    0.32581200
 C(Fragment=1)      2.19163600   -3.38402600    0.07226000
 C(Fragment=1)     -1.50834000   -3.09462600   -0.41452300
 C(Fragment=1)      4.27793500   -0.29907300    0.34917600
 C(Fragment=1)     -0.25389500   -3.65525600   -0.25738800
 C(Fragment=1)     -3.06840600   -1.14798900   -0.52698900
 C(Fragment=1)      3.28095900   -2.57694700    0.21859100
 C(Fragment=1)      1.47762700    3.66013100   -0.05226000
 C(Fragment=1)      2.70641200    3.09491100    0.12041100
 H(Fragment=1)     -3.87988300    0.74167600   -1.39323600
 H(Fragment=1)     -1.07155500    4.50155400   -0.41451100
 H(Fragment=1)     -3.06749200    3.06364300   -0.66290700
 H(Fragment=1)      5.26017500   -0.74697200    0.47833800
 H(Fragment=1)      2.30105100   -4.46553900    0.08087200
 H(Fragment=1)     -3.66543500   -1.70230700   -1.25566100
 H(Fragment=1)     -0.13135100   -4.73520300   -0.25686400
 H(Fragment=1)      5.01104600    1.70866600    0.43631400
 H(Fragment=1)      1.36674800    4.74122600   -0.08009200
 H(Fragment=1)     -2.37818400   -3.73597000   -0.53364200
 H(Fragment=1)      4.27124900   -3.00724400    0.34648600
 H(Fragment=1)      3.58937500    3.71935400    0.23202700
 C(Fragment=2)     -3.99867200    0.18951300    0.72944700
 O(Fragment=2)     -4.58126500    0.87882600    1.51148000
 O(Fragment=2)     -3.81292700   -1.16630900    0.76658900

 1 2 1.5 3 1.0 7 1.5
 2 4 1.5 8 1.5
 3 5 1.5 9 1.5
 4 6 1.5 10 1.5
 5 6 1.5 11 1.5
 6 12 1.5
 7 13 1.0 15 1.5
 8 14 1.5 23 1.5
 9 18 1.5 21 1.0
 10 16 1.5 24 1.5
 11 17 1.5 20 1.5
 12 19 1.5 22 1.5
 13 21 1.0 25 1.0 37 1.0
 14 15 2.0 26 1.0
 15 27 1.0
 16 19 2.0 32 1.0
 17 22 2.0 29 1.0
 18 20 2.0 34 1.0
 19 28 1.0
 20 31 1.0
 21 30 1.0 39 1.0
 22 35 1.0
 23 24 2.0 33 1.0
 24 36 1.0
 25
 26
 27
 28
 29
 30
 31
 32
 33
 34
 35
 36
 37 38 2.0 39 1.0
 38
 39

