%chk=WaC21.chk
%nprocshared=8
%mem=20GB
# b3lyp/6-31g(d) pop=full geom=connectivity gfinput iop(3/33=1,3/36=-1)
scf=xqc

Wac_edosN

0 1
 C                 -1.34084300   -0.49047200   -0.19832500
 C                 -0.24517000   -1.40688700   -0.20002800
 C                 -1.09558500    0.91709600   -0.19855500
 C                  1.09573400   -0.91630200   -0.19882700
 C                  0.24530100    1.40766400   -0.19929900
 C                  1.34097100    0.49127200   -0.19787500
 C                 -2.67637800   -0.97910100   -0.19884100
 C                 -0.48944600   -2.80711800   -0.20259900
 C                 -2.18647600    1.82878700   -0.19876900
 C                  2.18662800   -1.82801000   -0.19928900
 C                  0.48957700    2.80788600   -0.20117300
 C                  2.67650200    0.97989100   -0.19798000
 C                 -3.74855200   -0.04174900   -0.19743500
 C                 -1.83716200   -3.26708500   -0.20330300
 C                 -2.89025500   -2.38710700   -0.20113800
 C                  3.51269300   -1.30939400   -0.19753600
 C                  1.83728900    3.26785900   -0.20144700
 C                 -1.91135500    3.22589300   -0.20007000
 C                  3.74867400    0.04253800   -0.19685600
 C                 -0.62266300    3.69720000   -0.20148300
 C                 -3.51254300    1.31017500   -0.19746300
 C                  2.89038700    2.38789300   -0.19956800
 C                  0.62280200   -3.69642700   -0.20313600
 C                  1.91149400   -3.22511700   -0.20127600
 H                 -4.76868500   -0.41784700   -0.19651200
 H                 -2.02133900   -4.33862600   -0.20422800
 H                 -3.91210200   -2.75852400   -0.20080100
 H                  4.76880400    0.41864200   -0.19560300
 H                  2.02145900    4.33940300   -0.20182000
 H                 -4.34496600    2.00955200   -0.19586400
 H                 -0.43336300    4.76775900   -0.20152600
 H                  4.34512300   -2.00876300   -0.19613400
 H                  0.43350700   -4.76698500   -0.20371900
 H                 -2.74734000    3.92110800   -0.19917200
 H                  3.91223300    2.75931200   -0.19890100
 H                  2.74747900   -3.92033400   -0.20056400
 O                 -0.00117700   -0.00564800    3.23539000
 H                 -0.75386300   -0.09661200    2.63225300
 H                  0.75271700    0.08079000    2.63310000

 1 2 1.5 3 1.5 7 1.5
 2 4 1.5 8 1.5
 3 5 1.5 9 1.5
 4 6 1.5 10 1.5
 5 6 1.5 11 1.5
 6 12 1.5
 7 13 1.5 15 1.5
 8 14 1.5 23 1.5
 9 18 1.5 21 1.5
 10 16 1.5 24 1.5
 11 17 1.5 20 1.5
 12 19 1.5 22 1.5
 13 21 2.0 25 1.0
 14 15 2.0 26 1.0
 15 27 1.0
 16 19 2.0 32 1.0
 17 22 2.0 29 1.0
 18 20 2.0 34 1.0
 19 28 1.0
 20 31 1.0
 21 30 1.0
 22 35 1.0
 23 24 2.0 33 1.0
 24 36 1.0
 25
 26
 27
 28
 29
 30
 31
 32
 33
 34
 35
 36
 37 38 1.0 39 1.0
 38
 39

