%chk=WaC4-eN.chk
%nprocshared=8
%mem=20GB
# b3lyp/6-31g(d) pop=full geom=connectivity gfinput iop(3/33=1,3/36=-1) scf=xqc

WaC4-eN

0 1
 C                  1.00944000   -0.01302500   -0.01170800
 C                  0.30714600    1.22971500   -0.00800100
 C                  0.28466200   -1.24245800   -0.00793800
 C                 -1.12034800    1.24290000   -0.00041400
 C                 -1.14264900   -1.22974600   -0.00032500
 C                 -1.84535700    0.01298900    0.00344500
 C                  2.43042200   -0.02692900   -0.01908600
 C                  1.02969900    2.45400400   -0.01183700
 C                  0.98589100   -2.47898000   -0.01171500
 C                 -1.81999900    2.48043300    0.00328300
 C                 -1.86444300   -2.45438200    0.00348900
 C                 -3.26689000    0.02577100    0.01105700
 C                  3.11025600   -1.27935300   -0.02271400
 C                  2.45333500    2.40916400   -0.01916600
 C                  3.12922800    1.21457800   -0.02265400
 C                 -3.24391100    2.46252700    0.01091500
 C                 -3.28776300   -2.41081700    0.01114400
 C                  0.23609200   -3.68980100   -0.00781500
 C                 -3.94079000    1.28029000    0.01464800
 C                 -1.13627500   -3.67821100   -0.00046400
 C                  2.41009100   -2.46018800   -0.01920700
 C                 -3.96343000   -1.21629300    0.01477100
 C                  0.30212900    3.67814800   -0.00807900
 C                 -1.07022400    3.69107400   -0.00076900
 H                  4.19728600   -1.27676200   -0.02816400
 H                  3.00188100    3.34857000   -0.02220800
 H                  4.21571600    1.18683900   -0.02774200
 H                 -5.02821800    1.28719700    0.02043500
 H                 -3.83755200   -3.34908900    0.01407500
 H                  2.94222200   -3.40873200   -0.02216600
 H                 -1.69050900   -4.61387200    0.00243500
 H                 -3.77681600    3.41049900    0.01374600
 H                  0.85682600    4.61361500   -0.01116100
 H                  0.77404700   -4.63488600   -0.01080500
 H                 -5.05079500   -1.20355900    0.02056800
 H                 -1.60764100    4.63648100    0.00201300
 O                  6.46557700   -0.11117500    0.05583600
 H                  6.74546400    0.47587000   -0.66265600
 H                  6.61560700    0.40876400    0.85978300

 1 2 1.5 3 1.5 7 1.5
 2 4 1.5 8 1.5
 3 5 1.5 9 1.5
 4 6 1.5 10 1.5
 5 6 1.5 11 1.5
 6 12 1.5
 7 13 1.5 15 1.5
 8 14 1.5 23 1.5
 9 18 1.5 21 1.5
 10 16 1.5 24 1.5
 11 17 1.5 20 1.5
 12 19 1.5 22 1.5
 13 21 2.0 25 1.0
 14 15 2.0 26 1.0
 15 27 1.0
 16 19 2.0 32 1.0
 17 22 2.0 29 1.0
 18 20 2.0 34 1.0
 19 28 1.0
 20 31 1.0
 21 30 1.0
 22 35 1.0
 23 24 2.0 33 1.0
 24 36 1.0
 25
 26
 27
 28
 29
 30
 31
 32
 33
 34
 35
 36
 37 38 1.0 39 1.0
 38
 39

