%nprocshared=16
%mem=20GB
# opt freq b3lyp/6-31g(d) geom=connectivity scf=xqc

CaC-opt

0 1
 C                 -1.42730000    0.02810000    0.00000000
 C                 -0.68930000    1.25000000    0.00000000
 C                 -0.73790000   -1.22190000    0.00000000
 C                  0.73790000    1.22190000    0.00000000
 C                  0.68930000   -1.25000000    0.00000000
 C                  1.42730000   -0.02810000    0.00000000
 C                 -2.84920000    0.05600000    0.00000000
 C                 -1.37610000    2.49530000    0.00000000
 C                 -1.47310000   -2.43930000    0.00000000
 C                  1.47310000    2.43930000    0.00000000
 C                  1.37610000   -2.49530000    0.00000000
 C                  2.84920000   -0.05600000    0.00000000
 C                 -3.55840000   -1.17860000    0.00000000
 C                 -2.79990000    2.49210000    0.00000000
 C                 -3.50930000    1.31750000    0.00000000
 C                  2.89570000    2.38020000    0.00000000
 C                  2.79990000   -2.49210000    0.00000000
 C                 -0.75840000   -3.67070000    0.00000000
 C                  3.55840000    1.17860000    0.00000000
 C                  0.61350000   -3.69770000    0.00000000
 C                 -2.89570000   -2.38020000    0.00000000
 C                  3.50930000   -1.31750000    0.00000000
 C                 -0.61350000    3.69770000    0.00000000
 C                  0.75840000    3.67070000    0.00000000
 H                 -4.64560000   -1.15450000    0.00000000
 H                 -3.32290000    3.44560000    0.00000000
 H                 -4.59660000    1.33620000    0.00000000
 H                  4.64560000    1.15450000    0.00000000
 H                  3.32290000   -3.44560000    0.00000000
 H                 -3.45570000   -3.31240000    0.00000000
 H                  1.14100000   -4.64870000    0.00000000
 H                  3.45570000    3.31240000    0.00000000
 H                 -1.14100000    4.64870000    0.00000000
 H                 -1.32290000   -4.60020000    0.00000000
 H                  4.59660000   -1.33620000    0.00000000
 H                  1.32290000    4.60030000    0.00000000
 C                  0.72510000    1.07670000   -1.33730000
 O                  1.29620000    0.03510000   -1.33910000
 O                  0.15400000    2.11840000   -1.33550000

 1 2 2.0 3 1.0 7 1.0
 2 4 1.0 8 1.0
 3 5 2.0 9 1.0
 4 6 2.0 10 1.0
 5 6 1.0 11 1.0
 6 12 1.0
 7 13 2.0 15 1.0
 8 14 1.0 23 2.0
 9 18 1.0 21 2.0
 10 16 1.0 24 2.0
 11 17 2.0 20 1.0
 12 19 1.0 22 2.0
 13 21 1.0 25 1.0
 14 15 2.0 26 1.0
 15 27 1.0
 16 19 2.0 32 1.0
 17 22 1.0 29 1.0
 18 20 2.0 34 1.0
 19 28 1.0
 20 31 1.0
 21 30 1.0
 22 35 1.0
 23 24 1.0 33 1.0
 24 36 1.0
 25
 26
 27
 28
 29
 30
 31
 32
 33
 34
 35
 36
 37 38 2.0 39 2.0
 38
 39

