%nprocshared=16
%mem=20GB
# opt freq b3lyp/6-31g(d) geom=connectivity scf=xqc

Wac_opti

0 1
6       -1.416264000      0.181784000     -0.197696000
6       -0.864845000     -1.136284000     -0.198605000
6       -0.550922000      1.318285000     -0.198797000
6        0.551468000     -1.317728000     -0.199053000
6        0.865387000      1.136847000     -0.197903000
6        1.416809000     -0.181223000     -0.197306000
6       -2.826953000      0.362532000     -0.198049000
6       -1.726376000     -2.267186000     -0.199867000
6       -1.099650000      2.629508000     -0.200564000
6        1.100202000     -2.628950000     -0.201074000
6        1.726915000      2.267740000     -0.198489000
6        2.827504000     -0.361972000     -0.197224000
6       -3.347570000      1.688108000     -0.199338000
6       -3.134553000     -2.055157000     -0.199487000
6       -3.664574000     -0.789183000     -0.198422000
6        2.516256000     -2.779024000     -0.201107000
6        3.135092000      2.055713000     -0.197695000
6       -0.212378000      3.743269000     -0.201002000
6        3.348112000     -1.687552000     -0.198798000
6        1.148709000      3.569116000     -0.204675453
6       -2.515707000      2.779575000     -0.201002000
6        3.665118000      0.789743000     -0.196891000
6       -1.148156000     -3.568559000     -0.206310453
6        0.212931000     -3.742716000     -0.202226000
1       -4.426332000      1.823643000     -0.194001547
1       -3.791336000     -2.921642000     -0.199285000
1       -4.742726000     -0.648766000     -0.197782000
1        4.426875000     -1.823087000     -0.193154547
1        3.791876000      2.922198000     -0.196944000
1       -2.932446000      3.783751000     -0.201231000
1        1.809626000      4.432412000     -0.203918453
1        2.932988000     -3.783200000     -0.201556000
1       -1.809073000     -4.431855000     -0.206088453
1       -0.634527000      4.745212000     -0.201007000
1        4.743270000      0.649331000     -0.195938000
1        0.635084000     -4.744655000     -0.202445000
8       -0.004302000     -0.004333000      3.228940000
1       -0.780836810      0.293311681      2.625975000
1        0.772631810     -0.307018134      2.626464000

 1 2 2.0 3 1.0 7 1.0
 2 4 1.0 8 1.0
 3 5 2.0 9 1.0
 4 6 2.0 10 1.0
 5 6 1.0 11 1.0
 6 12 1.0
 7 13 2.0 15 1.0
 8 14 1.0 23 2.0
 9 18 1.0 21 2.0
 10 16 1.0 24 2.0
 11 17 2.0 20 1.0
 12 19 1.0 22 2.0
 13 21 1.0 25 1.0
 14 15 2.0 26 1.0
 15 27 1.0
 16 19 2.0 32 1.0
 17 22 1.0 29 1.0
 18 20 2.0 34 1.0
 19 28 1.0
 20 31 1.0
 21 30 1.0
 22 35 1.0
 23 24 1.0 33 1.0
 24 36 1.0
 25
 26
 27
 28
 29
 30
 31
 32
 33
 34
 35
 36
 37 39 1.0 38 1.0
 38
 39

