%nprocshared=16
%mem=20GB
# opt freq b3lyp/6-31g(d) geom=connectivity scf=xqc

WaC-opt4

0 1
 C                 -1.42730000    0.02800000    0.00000000
 C                 -0.68940000    1.25000000    0.00000000
 C                 -0.73790000   -1.22200000    0.00000000
 C                  0.73790000    1.22200000    0.00000000
 C                  0.68940000   -1.25000000    0.00000000
 C                  1.42730000   -0.02800000    0.00000000
 C                 -2.84920000    0.05580000    0.00000000
 C                 -1.37620000    2.49520000    0.00000000
 C                 -1.47300000   -2.43940000    0.00000000
 C                  1.47300000    2.43940000    0.00000000
 C                  1.37620000   -2.49520000    0.00000000
 C                  2.84920000   -0.05580000    0.00000000
 C                 -3.55830000   -1.17880000    0.00000000
 C                 -2.80010000    2.49200000    0.00000000
 C                 -3.50940000    1.31730000    0.00000000
 C                  2.89560000    2.38030000    0.00000000
 C                  2.80010000   -2.49200000    0.00000000
 C                 -0.75820000   -3.67080000    0.00000000
 C                  3.55830000    1.17880000    0.00000000
 C                  0.61380000   -3.69770000    0.00000000
 C                 -2.89560000   -2.38030000    0.00000000
 C                  3.50940000   -1.31730000    0.00000000
 C                 -0.61380000    3.69770000    0.00000000
 C                  0.75820000    3.67080000    0.00000000
 H                 -4.64550000   -1.15480000    0.00000000
 H                 -3.32310000    3.44540000    0.00000000
 H                 -4.59670000    1.33590000    0.00000000
 H                  4.64550000    1.15480000    0.00000000
 H                  3.32310000   -3.44540000    0.00000000
 H                 -3.45550000   -3.31260000    0.00000000
 H                  1.14130000   -4.64860000    0.00000000
 H                  3.45550000    3.31260000    0.00000000
 H                 -1.14130000    4.64860000    0.00000000
 H                 -1.32260000   -4.60030000    0.00000000
 H                  4.59670000   -1.33590000    0.00000000
 H                  1.32260000    4.60030000    0.00000000
 O                 -3.48910000   -1.17740000   -1.47950000
 H                 -3.93940000   -0.42920000   -1.91530000
 H                 -3.03740000   -1.70450000   -2.16570000

 1 2 2.0 3 1.0 7 1.0
 2 4 1.0 8 1.0
 3 5 2.0 9 1.0
 4 6 2.0 10 1.0
 5 6 1.0 11 1.0
 6 12 1.0
 7 13 2.0 15 1.0
 8 14 1.0 23 2.0
 9 18 1.0 21 2.0
 10 16 1.0 24 2.0
 11 17 2.0 20 1.0
 12 19 1.0 22 2.0
 13 21 1.0 25 1.0
 14 15 2.0 26 1.0
 15 27 1.0
 16 19 2.0 32 1.0
 17 22 1.0 29 1.0
 18 20 2.0 34 1.0
 19 28 1.0
 20 31 1.0
 21 30 1.0
 22 35 1.0
 23 24 1.0 33 1.0
 24 36 1.0
 25
 26
 27
 28
 29
 30
 31
 32
 33
 34
 35
 36
 37 39 1.0 38 1.0
 38
 39

